/*********************************************
 * OPL 20.1.0.0 Data
 * Author: 15142
 * Creation Date: 28 avr. 2021 at 20 h 49 min 46 s
 *********************************************/

Home = {"0", "1"};
 
N_i = 10;

Distance= [
[0 547.6 198.2 2269.1 3526.2 3572.1]
[547.6 0 402.0 2222.7 3406.0 3465.3]
[198.2 402.0 0 2139.7 3330.3 3442.7]
[2269.1 2222.7 2139.7 0 1329.1 1304.9]
[3526.2 3406.0 3330.3 1329.1 0 299.5]
[3572.1 3465.3 3442.7 1304.9 299.5 0]
];

